NAME : kroD100
TYPE : OP
DIMENSION : 100
COST_LIMIT : 10647
ROUTE_NODES : 54
ROUTE_SCORE : 3307
ROUTE_COST : 10638
NODE_SEQUENCE_SECTION
1
50
34
81
38
66
8
52
46
76
72
57
99
45
33
68
14
65
86
96
16
64
59
3
83
40
6
18
25
20
10
26
87
55
19
37
62
60
44
93
4
71
43
77
54
91
15
84
41
24
27
88
79
13
-1
DEPOT_SECTION
1
-1
EOF
